4 2 1 4 2 2 3 4 8 5 7 9 5 0 -1 
6 7 1 4 8 6 2 6 8 6 9 2 1 7 -1 
5 7 8 0 5 7 1 5 7 0 7 9 4 8 -1 
6 7 7 8 5 2 8 3 7 6 2 6 8 6 -1 
7 7 2 2 6 8 4 -1 1 -1 -1 5 5 6 -1 
6 5 2 6 1 1 1 7 5 6 -1 -1 0 0 -1 
5 8 9 4 2 4 7 9 7 5 8 7 9 -1 -1 
-1 6 4 1 0 5 6 4 3 6 8 3 8 2 -1 
2 -1 4 2 8 2 1 7 1 9 2 2 5 -1 -1 
9 -1 1 9 4 3 0 2 4 5 9 2 5 9 -1 
6 7 4 1 0 5 6 1 -1 7 0 2 2 6 -1 
1 9 9 0 1 0 3 2 7 -1 1 1 4 2 -1 
4 6 9 4 5 4 7 3 9 -1 7 9 9 3 -1 
-1 3 8 2 1 1 9 1 1 6 0 0 7 2 -1 
8 1 6 6 4 -1 8 0 9 6 8 3 3 4 -1 
